8,8	0,0	16,7	11,9	0,0	0,0	0,0	0,0	0,0	10,8
14,1	15,2	0,0	13,6	7,9	0,0	0,0	12,9	0,0	0,0
0,0	0,0	7,0	0,0	10,3	18,4	0,0	0,0	19,6	0,0
19,6	0,0	7,2	0,0	0,0	0,0	5,3	0,0	0,0	0,0
0,0	7,1	0,0	6,5	13,2	0,0	0,0	9,6	0,0	0,0
0,0	16,8	13,9	0,0	17,8	14,4	0,0	0,0	12,5	0,0
0,0	7,7	0,0	19,5	0,0	0,0	15,4	0,0	0,0	7,8
6,0	0,0	5,7	0,0	0,0	0,0	0,0	0,0	0,0	11,0
0,0	7,9	0,0	16,7	18,2	0,0	0,0	14,8	0,0	0,0
0,0	0,0	16,9	0,0	0,0	8,0	6,5	0,0	0,0	20,0
									
4,9	4,3	4,4	3,0	3,9	3,6	4,7	3,4	2,6	3,9
